BAYES
441
2 2 2 2 2 2 2 2 2 2 2 2 2 2 2 2 2 2 2 2 2 2 2 2 2 2 2 2 2 2 2 2 2 2 2 2 2 2 2 2 2 2 2 2 2 2 2 2 2 2 2 2 2 2 2 2 2 2 2 2 2 2 2 2 2 2 2 2 2 2 2 2 2 2 2 2 2 2 2 2 2 2 2 2 2 2 2 2 2 2 2 2 2 2 2 2 2 2 2 2 2 2 2 2 2 2 2 2 2 2 2 2 2 2 2 2 2 2 2 2 2 2 2 2 2 2 2 2 2 2 2 2 2 2 2 2 2 2 2 2 2 2 2 2 2 2 2 2 2 2 2 2 2 2 2 2 2 2 2 2 2 2 2 2 2 2 2 2 2 2 2 2 2 2 2 2 2 2 2 2 2 2 2 2 2 2 2 2 2 2 2 2 2 2 2 2 2 2 2 2 2 2 2 2 2 2 2 2 2 2 2 2 2 2 2 2 2 2 2 2 2 2 2 2 2 2 2 2 2 2 2 2 2 2 2 2 2 2 2 2 2 2 2 2 2 2 2 2 2 2 2 2 2 2 2 2 2 2 2 2 2 2 2 2 2 2 2 2 2 2 2 2 2 2 2 2 2 2 2 2 2 2 2 2 2 2 2 2 2 2 2 2 2 2 2 2 2 2 2 2 2 2 2 2 2 2 2 2 2 2 2 2 2 2 2 2 2 2 2 2 2 2 2 2 2 2 2 2 2 2 2 2 2 2 2 2 2 2 2 2 2 2 2 2 2 2 2 2 2 2 2 2 2 2 2 2 2 2 2 2 2 2 2 2 2 2 2 2 2 2 2 2 2 2 2 2 2 2 2 2 2 2 2 2 2 2 2 2 2 2 2 2 2 2 2 2 2 2 2 2 2 2 2 2 2 2 2 2 2 2 2 2 2 2 2 2 2 2 2 2 2 2 2 2 2 2 2 2 2 2 2 2 2 2 2 2 2 2 2 2 2
441
1 0
2 0 1
2 1 2
2 2 3
2 3 4
2 4 5
2 5 6
2 6 7
2 7 8
2 8 9
2 9 10
2 10 11
2 11 12
2 12 13
2 13 14
2 14 15
2 15 16
2 16 17
2 17 18
2 18 19
2 19 20
2 0 21
3 1 21 22
3 2 22 23
3 3 23 24
3 4 24 25
3 5 25 26
3 6 26 27
3 7 27 28
3 8 28 29
3 9 29 30
3 10 30 31
3 11 31 32
3 12 32 33
3 13 33 34
3 14 34 35
3 15 35 36
3 16 36 37
3 17 37 38
3 18 38 39
3 19 39 40
3 20 40 41
2 21 42
3 22 42 43
3 23 43 44
3 24 44 45
3 25 45 46
3 26 46 47
3 27 47 48
3 28 48 49
3 29 49 50
3 30 50 51
3 31 51 52
3 32 52 53
3 33 53 54
3 34 54 55
3 35 55 56
3 36 56 57
3 37 57 58
3 38 58 59
3 39 59 60
3 40 60 61
3 41 61 62
2 42 63
3 43 63 64
3 44 64 65
3 45 65 66
3 46 66 67
3 47 67 68
3 48 68 69
3 49 69 70
3 50 70 71
3 51 71 72
3 52 72 73
3 53 73 74
3 54 74 75
3 55 75 76
3 56 76 77
3 57 77 78
3 58 78 79
3 59 79 80
3 60 80 81
3 61 81 82
3 62 82 83
2 63 84
3 64 84 85
3 65 85 86
3 66 86 87
3 67 87 88
3 68 88 89
3 69 89 90
3 70 90 91
3 71 91 92
3 72 92 93
3 73 93 94
3 74 94 95
3 75 95 96
3 76 96 97
3 77 97 98
3 78 98 99
3 79 99 100
3 80 100 101
3 81 101 102
3 82 102 103
3 83 103 104
2 84 105
3 85 105 106
3 86 106 107
3 87 107 108
3 88 108 109
3 89 109 110
3 90 110 111
3 91 111 112
3 92 112 113
3 93 113 114
3 94 114 115
3 95 115 116
3 96 116 117
3 97 117 118
3 98 118 119
3 99 119 120
3 100 120 121
3 101 121 122
3 102 122 123
3 103 123 124
3 104 124 125
2 105 126
3 106 126 127
3 107 127 128
3 108 128 129
3 109 129 130
3 110 130 131
3 111 131 132
3 112 132 133
3 113 133 134
3 114 134 135
3 115 135 136
3 116 136 137
3 117 137 138
3 118 138 139
3 119 139 140
3 120 140 141
3 121 141 142
3 122 142 143
3 123 143 144
3 124 144 145
3 125 145 146
2 126 147
3 127 147 148
3 128 148 149
3 129 149 150
3 130 150 151
3 131 151 152
3 132 152 153
3 133 153 154
3 134 154 155
3 135 155 156
3 136 156 157
3 137 157 158
3 138 158 159
3 139 159 160
3 140 160 161
3 141 161 162
3 142 162 163
3 143 163 164
3 144 164 165
3 145 165 166
3 146 166 167
2 147 168
3 148 168 169
3 149 169 170
3 150 170 171
3 151 171 172
3 152 172 173
3 153 173 174
3 154 174 175
3 155 175 176
3 156 176 177
3 157 177 178
3 158 178 179
3 159 179 180
3 160 180 181
3 161 181 182
3 162 182 183
3 163 183 184
3 164 184 185
3 165 185 186
3 166 186 187
3 167 187 188
2 168 189
3 169 189 190
3 170 190 191
3 171 191 192
3 172 192 193
3 173 193 194
3 174 194 195
3 175 195 196
3 176 196 197
3 177 197 198
3 178 198 199
3 179 199 200
3 180 200 201
3 181 201 202
3 182 202 203
3 183 203 204
3 184 204 205
3 185 205 206
3 186 206 207
3 187 207 208
3 188 208 209
2 189 210
3 190 210 211
3 191 211 212
3 192 212 213
3 193 213 214
3 194 214 215
3 195 215 216
3 196 216 217
3 197 217 218
3 198 218 219
3 199 219 220
3 200 220 221
3 201 221 222
3 202 222 223
3 203 223 224
3 204 224 225
3 205 225 226
3 206 226 227
3 207 227 228
3 208 228 229
3 209 229 230
2 210 231
3 211 231 232
3 212 232 233
3 213 233 234
3 214 234 235
3 215 235 236
3 216 236 237
3 217 237 238
3 218 238 239
3 219 239 240
3 220 240 241
3 221 241 242
3 222 242 243
3 223 243 244
3 224 244 245
3 225 245 246
3 226 246 247
3 227 247 248
3 228 248 249
3 229 249 250
3 230 250 251
2 231 252
3 232 252 253
3 233 253 254
3 234 254 255
3 235 255 256
3 236 256 257
3 237 257 258
3 238 258 259
3 239 259 260
3 240 260 261
3 241 261 262
3 242 262 263
3 243 263 264
3 244 264 265
3 245 265 266
3 246 266 267
3 247 267 268
3 248 268 269
3 249 269 270
3 250 270 271
3 251 271 272
2 252 273
3 253 273 274
3 254 274 275
3 255 275 276
3 256 276 277
3 257 277 278
3 258 278 279
3 259 279 280
3 260 280 281
3 261 281 282
3 262 282 283
3 263 283 284
3 264 284 285
3 265 285 286
3 266 286 287
3 267 287 288
3 268 288 289
3 269 289 290
3 270 290 291
3 271 291 292
3 272 292 293
2 273 294
3 274 294 295
3 275 295 296
3 276 296 297
3 277 297 298
3 278 298 299
3 279 299 300
3 280 300 301
3 281 301 302
3 282 302 303
3 283 303 304
3 284 304 305
3 285 305 306
3 286 306 307
3 287 307 308
3 288 308 309
3 289 309 310
3 290 310 311
3 291 311 312
3 292 312 313
3 293 313 314
2 294 315
3 295 315 316
3 296 316 317
3 297 317 318
3 298 318 319
3 299 319 320
3 300 320 321
3 301 321 322
3 302 322 323
3 303 323 324
3 304 324 325
3 305 325 326
3 306 326 327
3 307 327 328
3 308 328 329
3 309 329 330
3 310 330 331
3 311 331 332
3 312 332 333
3 313 333 334
3 314 334 335
2 315 336
3 316 336 337
3 317 337 338
3 318 338 339
3 319 339 340
3 320 340 341
3 321 341 342
3 322 342 343
3 323 343 344
3 324 344 345
3 325 345 346
3 326 346 347
3 327 347 348
3 328 348 349
3 329 349 350
3 330 350 351
3 331 351 352
3 332 352 353
3 333 353 354
3 334 354 355
3 335 355 356
2 336 357
3 337 357 358
3 338 358 359
3 339 359 360
3 340 360 361
3 341 361 362
3 342 362 363
3 343 363 364
3 344 364 365
3 345 365 366
3 346 366 367
3 347 367 368
3 348 368 369
3 349 369 370
3 350 370 371
3 351 371 372
3 352 372 373
3 353 373 374
3 354 374 375
3 355 375 376
3 356 376 377
2 357 378
3 358 378 379
3 359 379 380
3 360 380 381
3 361 381 382
3 362 382 383
3 363 383 384
3 364 384 385
3 365 385 386
3 366 386 387
3 367 387 388
3 368 388 389
3 369 389 390
3 370 390 391
3 371 391 392
3 372 392 393
3 373 393 394
3 374 394 395
3 375 395 396
3 376 396 397
3 377 397 398
2 378 399
3 379 399 400
3 380 400 401
3 381 401 402
3 382 402 403
3 383 403 404
3 384 404 405
3 385 405 406
3 386 406 407
3 387 407 408
3 388 408 409
3 389 409 410
3 390 410 411
3 391 411 412
3 392 412 413
3 393 413 414
3 394 414 415
3 395 415 416
3 396 416 417
3 397 417 418
3 398 418 419
2 399 420
3 400 420 421
3 401 421 422
3 402 422 423
3 403 423 424
3 404 424 425
3 405 425 426
3 406 426 427
3 407 427 428
3 408 428 429
3 409 429 430
3 410 430 431
3 411 431 432
3 412 432 433
3 413 433 434
3 414 434 435
3 415 435 436
3 416 436 437
3 417 437 438
3 418 438 439
3 419 439 440

2
0.670101 0.329899
4
0.0 1.0 1.0 0.0
4
1.0 0.0 0.0 1.0
4
0.0 1.0 1.0 0.0
4
1.0 0.0 0.0 1.0
4
1.0 0.0 0.0 1.0
4
0.0 1.0 1.0 0.0
4
0.0 1.0 1.0 0.0
4
0.0 1.0 1.0 0.0
4
0.956852 0.043148 0.0635902 0.93641
4
1.0 0.0 0.0 1.0
4
0.861211 0.138789 0.43552 0.56448
4
0.765477 0.234523 0.461756 0.538244
4
1.0 0.0 0.0 1.0
4
0.688349 0.311651 0.611215 0.388785
4
1.0 0.0 0.0 1.0
4
1.0 0.0 0.0 1.0
4
0.0 1.0 1.0 0.0
4
0.0 1.0 1.0 0.0
4
1.0 0.0 0.0 1.0
4
1.0 0.0 0.0 1.0
4
1.0 0.0 0.0 1.0
8
0.0 1.0 1.0 0.0 1.0 0.0 0.0 1.0
8
0.541822 0.458178 0.326256 0.673744 0.401 0.599 0.310586 0.689414
8
0.0 1.0 1.0 0.0 0.0 1.0 1.0 0.0
8
1.0 0.0 1.0 0.0 1.0 0.0 0.0 1.0
8
1.0 0.0 0.0 1.0 1.0 0.0 1.0 0.0
8
0.0 1.0 0.0 1.0 1.0 0.0 1.0 0.0
8
1.0 0.0 1.0 0.0 1.0 0.0 0.0 1.0
8
1.0 0.0 0.0 1.0 0.0 1.0 0.0 1.0
8
1.0 0.0 0.0 1.0 1.0 0.0 0.0 1.0
8
0.0 1.0 1.0 0.0 0.0 1.0 1.0 0.0
8
1.0 0.0 0.0 1.0 0.0 1.0 0.0 1.0
8
0.0 1.0 0.0 1.0 0.0 1.0 1.0 0.0
8
0.954473 0.0455271 0.470019 0.529981 0.822051 0.177949 0.228292 0.771708
8
1.0 0.0 1.0 0.0 0.0 1.0 1.0 0.0
8
0.0 1.0 1.0 0.0 1.0 0.0 0.0 1.0
8
0.753848 0.246152 0.190852 0.809148 0.0808729 0.919127 0.661841 0.338159
8
0.435646 0.564354 0.867267 0.132733 0.00646503 0.993535 0.617338 0.382662
8
0.0 1.0 1.0 0.0 0.0 1.0 0.0 1.0
8
1.0 0.0 0.0 1.0 0.0 1.0 0.0 1.0
8
1.0 0.0 1.0 0.0 0.0 1.0 1.0 0.0
4
0.184652 0.815348 0.759288 0.240712
8
0.0 1.0 1.0 0.0 0.0 1.0 0.0 1.0
8
1.0 0.0 0.0 1.0 1.0 0.0 1.0 0.0
8
1.0 0.0 1.0 0.0 0.0 1.0 1.0 0.0
8
0.0 1.0 1.0 0.0 0.0 1.0 1.0 0.0
8
0.497135 0.502865 0.873136 0.126864 0.155736 0.844264 0.752831 0.247169
8
1.0 0.0 1.0 0.0 0.0 1.0 0.0 1.0
8
1.0 0.0 0.0 1.0 0.0 1.0 1.0 0.0
8
0.0 1.0 0.0 1.0 1.0 0.0 1.0 0.0
8
1.0 0.0 1.0 0.0 0.0 1.0 1.0 0.0
8
0.247094 0.752906 0.852072 0.147928 0.518112 0.481888 0.668381 0.331619
8
1.0 0.0 1.0 0.0 1.0 0.0 0.0 1.0
8
0.93907 0.0609305 0.575934 0.424066 0.790776 0.209224 0.562676 0.437324
8
0.422493 0.577507 0.72641 0.27359 0.548886 0.451114 0.655106 0.344894
8
1.0 0.0 1.0 0.0 0.0 1.0 0.0 1.0
8
1.0 0.0 1.0 0.0 1.0 0.0 0.0 1.0
8
0.0 1.0 1.0 0.0 0.0 1.0 1.0 0.0
8
0.467993 0.532007 0.0243903 0.97561 0.994852 0.00514821 0.712637 0.287363
8
0.0 1.0 0.0 1.0 1.0 0.0 1.0 0.0
8
0.0 1.0 1.0 0.0 1.0 0.0 1.0 0.0
8
1.0 0.0 1.0 0.0 0.0 1.0 1.0 0.0
4
0.556817 0.443183 0.631277 0.368723
8
0.0 1.0 1.0 0.0 1.0 0.0 1.0 0.0
8
0.226402 0.773598 0.46097 0.53903 0.440168 0.559832 0.250793 0.749207
8
0.0 1.0 0.0 1.0 1.0 0.0 1.0 0.0
8
0.0729942 0.927006 0.0188953 0.981105 0.748262 0.251738 0.199462 0.800538
8
0.233992 0.766008 0.981035 0.018965 0.0845998 0.9154 0.527474 0.472526
8
0.0 1.0 1.0 0.0 0.0 1.0 0.0 1.0
8
0.0 1.0 1.0 0.0 1.0 0.0 1.0 0.0
8
0.345244 0.654756 0.927258 0.0727417 0.291691 0.708309 0.596037 0.403963
8
1.0 0.0 0.0 1.0 1.0 0.0 0.0 1.0
8
0.0 1.0 0.0 1.0 0.0 1.0 1.0 0.0
8
0.0 1.0 1.0 0.0 1.0 0.0 0.0 1.0
8
1.0 0.0 0.0 1.0 1.0 0.0 1.0 0.0
8
1.0 0.0 0.0 1.0 1.0 0.0 0.0 1.0
8
0.69082 0.30918 0.711529 0.288471 0.0589195 0.94108 0.286857 0.713143
8
1.0 0.0 0.0 1.0 0.0 1.0 1.0 0.0
8
0.671803 0.328197 0.0203299 0.97967 0.675481 0.324519 0.696359 0.303641
8
0.0 1.0 1.0 0.0 0.0 1.0 1.0 0.0
8
1.0 0.0 0.0 1.0 0.0 1.0 0.0 1.0
8
0.0 1.0 1.0 0.0 1.0 0.0 1.0 0.0
8
0.0 1.0 0.0 1.0 1.0 0.0 1.0 0.0
4
0.0 1.0 1.0 0.0
8
0.837776 0.162224 0.917891 0.0821094 0.535406 0.464594 0.614401 0.385599
8
0.0 1.0 1.0 0.0 1.0 0.0 1.0 0.0
8
0.0 1.0 1.0 0.0 0.0 1.0 0.0 1.0
8
0.0 1.0 1.0 0.0 0.0 1.0 0.0 1.0
8
1.0 0.0 1.0 0.0 0.0 1.0 1.0 0.0
8
1.0 0.0 0.0 1.0 1.0 0.0 0.0 1.0
8
0.877937 0.122063 0.400762 0.599238 0.507186 0.492814 0.433673 0.566327
8
1.0 0.0 1.0 0.0 1.0 0.0 0.0 1.0
8
1.0 0.0 0.0 1.0 0.0 1.0 0.0 1.0
8
0.0 1.0 0.0 1.0 0.0 1.0 1.0 0.0
8
0.489017 0.510983 0.369171 0.630829 0.624954 0.375046 0.417437 0.582563
8
0.573539 0.426461 0.417039 0.582961 0.271251 0.728749 0.3599 0.6401
8
1.0 0.0 1.0 0.0 1.0 0.0 0.0 1.0
8
1.0 0.0 1.0 0.0 0.0 1.0 1.0 0.0
8
1.0 0.0 1.0 0.0 1.0 0.0 0.0 1.0
8
1.0 0.0 1.0 0.0 0.0 1.0 0.0 1.0
8
0.508005 0.491995 0.312565 0.687435 0.359627 0.640373 0.436725 0.563275
8
0.776666 0.223334 0.707976 0.292024 0.246004 0.753996 0.111198 0.888802
8
0.0066661 0.993334 0.952916 0.0470839 0.440024 0.559976 0.457972 0.542028
8
0.0 1.0 0.0 1.0 0.0 1.0 1.0 0.0
4
1.0 0.0 0.0 1.0
8
0.0 1.0 1.0 0.0 1.0 0.0 1.0 0.0
8
0.0 1.0 1.0 0.0 1.0 0.0 1.0 0.0
8
0.418135 0.581865 0.447015 0.552985 0.638261 0.361739 0.194801 0.805199
8
0.0 1.0 1.0 0.0 0.0 1.0 1.0 0.0
8
0.0 1.0 0.0 1.0 1.0 0.0 0.0 1.0
8
1.0 0.0 1.0 0.0 0.0 1.0 1.0 0.0
8
1.0 0.0 1.0 0.0 1.0 0.0 0.0 1.0
8
0.920514 0.0794861 0.520579 0.479421 0.224045 0.775955 0.979022 0.0209781
8
0.0 1.0 0.0 1.0 1.0 0.0 1.0 0.0
8
1.0 0.0 0.0 1.0 1.0 0.0 1.0 0.0
8
1.0 0.0 1.0 0.0 1.0 0.0 0.0 1.0
8
0.854512 0.145488 0.703511 0.296489 0.126638 0.873362 0.934505 0.0654947
8
0.781481 0.218519 0.966979 0.0330213 0.648756 0.351244 0.799775 0.200225
8
0.56927 0.43073 0.320355 0.679645 0.975477 0.0245231 0.548292 0.451708
8
0.951679 0.0483211 0.945448 0.0545518 0.829109 0.170891 0.566142 0.433858
8
1.0 0.0 1.0 0.0 1.0 0.0 0.0 1.0
8
0.0 1.0 1.0 0.0 0.0 1.0 1.0 0.0
8
0.0 1.0 0.0 1.0 0.0 1.0 1.0 0.0
8
0.0 1.0 1.0 0.0 0.0 1.0 1.0 0.0
8
0.0 1.0 0.0 1.0 1.0 0.0 1.0 0.0
4
0.0 1.0 1.0 0.0
8
1.0 0.0 0.0 1.0 0.0 1.0 1.0 0.0
8
0.0 1.0 1.0 0.0 1.0 0.0 0.0 1.0
8
0.460504 0.539496 0.309114 0.690886 0.43456 0.56544 0.474338 0.525662
8
1.0 0.0 0.0 1.0 0.0 1.0 1.0 0.0
8
0.279951 0.720049 0.621758 0.378242 0.964248 0.0357516 0.966538 0.0334617
8
1.0 0.0 1.0 0.0 1.0 0.0 0.0 1.0
8
0.834346 0.165654 0.346072 0.653928 0.518921 0.481079 0.430963 0.569037
8
0.0 1.0 0.0 1.0 1.0 0.0 1.0 0.0
8
0.0 1.0 1.0 0.0 1.0 0.0 1.0 0.0
8
0.805391 0.194609 0.561778 0.438222 0.0509813 0.949019 0.19853 0.80147
8
0.804569 0.195431 0.478481 0.521519 0.453407 0.546593 0.768817 0.231183
8
1.0 0.0 1.0 0.0 0.0 1.0 0.0 1.0
8
1.0 0.0 0.0 1.0 0.0 1.0 0.0 1.0
8
1.0 0.0 0.0 1.0 1.0 0.0 0.0 1.0
8
0.548585 0.451415 0.73446 0.26554 0.246667 0.753333 0.0661685 0.933832
8
0.0 1.0 0.0 1.0 0.0 1.0 1.0 0.0
8
0.961516 0.0384836 0.548571 0.451429 0.25811 0.74189 0.730334 0.269666
8
0.436593 0.563407 0.24333 0.75667 0.41209 0.58791 0.418948 0.581052
8
0.662236 0.337764 0.235649 0.764351 0.760198 0.239802 0.431303 0.568697
8
1.0 0.0 0.0 1.0 1.0 0.0 1.0 0.0
4
1.0 0.0 0.0 1.0
8
0.0 1.0 1.0 0.0 0.0 1.0 0.0 1.0
8
0.0 1.0 0.0 1.0 1.0 0.0 0.0 1.0
8
0.0 1.0 0.0 1.0 1.0 0.0 1.0 0.0
8
0.675019 0.324981 0.334081 0.665919 0.378164 0.621836 0.503747 0.496253
8
0.613812 0.386188 0.263945 0.736055 0.427621 0.572379 0.0971249 0.902875
8
0.0 1.0 1.0 0.0 1.0 0.0 0.0 1.0
8
1.0 0.0 0.0 1.0 0.0 1.0 0.0 1.0
8
0.0 1.0 0.0 1.0 0.0 1.0 1.0 0.0
8
0.0 1.0 1.0 0.0 1.0 0.0 1.0 0.0
8
1.0 0.0 0.0 1.0 0.0 1.0 1.0 0.0
8
1.0 0.0 0.0 1.0 1.0 0.0 1.0 0.0
8
0.0 1.0 1.0 0.0 0.0 1.0 0.0 1.0
8
0.0 1.0 1.0 0.0 1.0 0.0 0.0 1.0
8
1.0 0.0 0.0 1.0 0.0 1.0 0.0 1.0
8
1.0 0.0 0.0 1.0 1.0 0.0 0.0 1.0
8
1.0 0.0 1.0 0.0 1.0 0.0 0.0 1.0
8
1.0 0.0 0.0 1.0 0.0 1.0 0.0 1.0
8
1.0 0.0 0.0 1.0 0.0 1.0 0.0 1.0
8
0.600909 0.399091 0.352179 0.647821 0.421784 0.578216 0.0418412 0.958159
8
1.0 0.0 0.0 1.0 0.0 1.0 1.0 0.0
4
0.0 1.0 1.0 0.0
8
0.0 1.0 1.0 0.0 1.0 0.0 1.0 0.0
8
1.0 0.0 0.0 1.0 1.0 0.0 0.0 1.0
8
1.0 0.0 0.0 1.0 1.0 0.0 1.0 0.0
8
1.0 0.0 0.0 1.0 1.0 0.0 1.0 0.0
8
0.0 1.0 1.0 0.0 0.0 1.0 1.0 0.0
8
1.0 0.0 0.0 1.0 1.0 0.0 1.0 0.0
8
0.0 1.0 1.0 0.0 1.0 0.0 1.0 0.0
8
0.0 1.0 1.0 0.0 0.0 1.0 0.0 1.0
8
1.0 0.0 0.0 1.0 0.0 1.0 0.0 1.0
8
0.770893 0.229107 0.191014 0.808986 0.119769 0.880231 0.229278 0.770722
8
0.0 1.0 1.0 0.0 1.0 0.0 0.0 1.0
8
0.0 1.0 1.0 0.0 0.0 1.0 0.0 1.0
8
0.0 1.0 0.0 1.0 0.0 1.0 1.0 0.0
8
1.0 0.0 1.0 0.0 0.0 1.0 0.0 1.0
8
1.0 0.0 1.0 0.0 1.0 0.0 0.0 1.0
8
1.0 0.0 0.0 1.0 1.0 0.0 1.0 0.0
8
0.0772762 0.922724 0.188742 0.811258 0.0415502 0.95845 0.424596 0.575404
8
0.0 1.0 0.0 1.0 1.0 0.0 0.0 1.0
8
0.0 1.0 0.0 1.0 0.0 1.0 1.0 0.0
8
1.0 0.0 0.0 1.0 1.0 0.0 1.0 0.0
4
1.0 0.0 0.0 1.0
8
1.0 0.0 1.0 0.0 1.0 0.0 0.0 1.0
8
0.0 1.0 1.0 0.0 0.0 1.0 0.0 1.0
8
1.0 0.0 0.0 1.0 0.0 1.0 0.0 1.0
8
0.0 1.0 0.0 1.0 1.0 0.0 1.0 0.0
8
0.344763 0.655237 0.664665 0.335335 0.123845 0.876155 0.181984 0.818016
8
0.0 1.0 0.0 1.0 0.0 1.0 1.0 0.0
8
1.0 0.0 0.0 1.0 0.0 1.0 0.0 1.0
8
0.0 1.0 1.0 0.0 1.0 0.0 1.0 0.0
8
1.0 0.0 1.0 0.0 0.0 1.0 1.0 0.0
8
0.543044 0.456956 0.894379 0.105621 0.595073 0.404927 0.719934 0.280066
8
1.0 0.0 1.0 0.0 1.0 0.0 0.0 1.0
8
0.0 1.0 0.0 1.0 1.0 0.0 1.0 0.0
8
1.0 0.0 0.0 1.0 0.0 1.0 0.0 1.0
8
1.0 0.0 0.0 1.0 1.0 0.0 0.0 1.0
8
1.0 0.0 1.0 0.0 0.0 1.0 0.0 1.0
8
1.0 0.0 0.0 1.0 1.0 0.0 1.0 0.0
8
0.300478 0.699522 0.892908 0.107092 0.030688 0.969312 0.814791 0.185209
8
1.0 0.0 0.0 1.0 1.0 0.0 0.0 1.0
8
0.946041 0.053959 0.737811 0.262189 0.467589 0.532411 0.382389 0.617611
8
1.0 0.0 1.0 0.0 1.0 0.0 0.0 1.0
4
1.0 0.0 0.0 1.0
8
0.0 1.0 1.0 0.0 0.0 1.0 0.0 1.0
8
0.103803 0.896197 0.160404 0.839596 0.678682 0.321318 0.902347 0.0976527
8
0.0 1.0 1.0 0.0 1.0 0.0 1.0 0.0
8
0.0 1.0 1.0 0.0 0.0 1.0 1.0 0.0
8
1.0 0.0 1.0 0.0 1.0 0.0 0.0 1.0
8
1.0 0.0 0.0 1.0 1.0 0.0 0.0 1.0
8
1.0 0.0 0.0 1.0 0.0 1.0 1.0 0.0
8
0.0 1.0 1.0 0.0 0.0 1.0 0.0 1.0
8
0.195298 0.804702 0.0873914 0.912609 0.699272 0.300728 0.442771 0.557229
8
0.194654 0.805346 0.395986 0.604014 0.224662 0.775338 0.636077 0.363923
8
1.0 0.0 1.0 0.0 0.0 1.0 1.0 0.0
8
0.0828386 0.917161 0.73993 0.26007 0.967858 0.032142 0.228 0.772
8
1.0 0.0 0.0 1.0 1.0 0.0 0.0 1.0
8
0.739332 0.260668 0.449163 0.550837 0.269685 0.730315 0.0015953 0.998405
8
0.0 1.0 0.0 1.0 1.0 0.0 0.0 1.0
8
1.0 0.0 1.0 0.0 1.0 0.0 0.0 1.0
8
0.0 1.0 0.0 1.0 0.0 1.0 1.0 0.0
8
1.0 0.0 0.0 1.0 0.0 1.0 0.0 1.0
8
0.0 1.0 1.0 0.0 1.0 0.0 0.0 1.0
8
0.0 1.0 1.0 0.0 0.0 1.0 1.0 0.0
4
0.0 1.0 1.0 0.0
8
1.0 0.0 0.0 1.0 1.0 0.0 0.0 1.0
8
0.0 1.0 1.0 0.0 1.0 0.0 0.0 1.0
8
1.0 0.0 1.0 0.0 0.0 1.0 1.0 0.0
8
0.0 1.0 1.0 0.0 1.0 0.0 1.0 0.0
8
1.0 0.0 1.0 0.0 0.0 1.0 0.0 1.0
8
1.0 0.0 0.0 1.0 0.0 1.0 0.0 1.0
8
0.622461 0.377539 0.478319 0.521681 0.0759976 0.924002 0.989055 0.0109446
8
1.0 0.0 1.0 0.0 1.0 0.0 0.0 1.0
8
0.760245 0.239755 0.273353 0.726647 0.494718 0.505282 0.159547 0.840453
8
0.0 1.0 0.0 1.0 1.0 0.0 1.0 0.0
8
0.0 1.0 0.0 1.0 1.0 0.0 0.0 1.0
8
0.0 1.0 1.0 0.0 1.0 0.0 1.0 0.0
8
0.0 1.0 1.0 0.0 1.0 0.0 0.0 1.0
8
1.0 0.0 0.0 1.0 0.0 1.0 0.0 1.0
8
0.338446 0.661554 0.786582 0.213418 0.205856 0.794144 0.833165 0.166835
8
0.397551 0.602449 0.0370793 0.962921 0.683786 0.316214 0.0557265 0.944274
8
0.0 1.0 1.0 0.0 0.0 1.0 1.0 0.0
8
1.0 0.0 0.0 1.0 1.0 0.0 1.0 0.0
8
1.0 0.0 1.0 0.0 0.0 1.0 0.0 1.0
8
1.0 0.0 1.0 0.0 1.0 0.0 0.0 1.0
4
0.611717 0.388283 0.424261 0.575739
8
0.0 1.0 0.0 1.0 1.0 0.0 0.0 1.0
8
0.0 1.0 1.0 0.0 1.0 0.0 0.0 1.0
8
1.0 0.0 0.0 1.0 1.0 0.0 1.0 0.0
8
0.0 1.0 0.0 1.0 1.0 0.0 1.0 0.0
8
1.0 0.0 1.0 0.0 0.0 1.0 1.0 0.0
8
0.0 1.0 1.0 0.0 0.0 1.0 0.0 1.0
8
0.492107 0.507893 0.663731 0.336269 0.25305 0.74695 0.0201853 0.979815
8
0.547554 0.452446 0.232049 0.767951 0.149706 0.850294 0.0379413 0.962059
8
1.0 0.0 1.0 0.0 1.0 0.0 0.0 1.0
8
1.0 0.0 1.0 0.0 0.0 1.0 0.0 1.0
8
1.0 0.0 0.0 1.0 0.0 1.0 1.0 0.0
8
0.0 1.0 1.0 0.0 0.0 1.0 0.0 1.0
8
0.663231 0.336769 0.091625 0.908375 0.59355 0.40645 0.916281 0.0837192
8
1.0 0.0 1.0 0.0 0.0 1.0 1.0 0.0
8
1.0 0.0 0.0 1.0 1.0 0.0 1.0 0.0
8
0.0 1.0 0.0 1.0 1.0 0.0 1.0 0.0
8
0.925401 0.0745995 0.310436 0.689564 0.545361 0.454639 0.774619 0.225381
8
1.0 0.0 1.0 0.0 0.0 1.0 0.0 1.0
8
0.737515 0.262485 0.925865 0.0741347 0.381649 0.618351 0.653796 0.346204
8
0.0 1.0 0.0 1.0 1.0 0.0 1.0 0.0
4
0.0 1.0 1.0 0.0
8
0.0 1.0 1.0 0.0 0.0 1.0 0.0 1.0
8
0.0 1.0 1.0 0.0 1.0 0.0 1.0 0.0
8
1.0 0.0 0.0 1.0 0.0 1.0 0.0 1.0
8
0.0 1.0 0.0 1.0 0.0 1.0 1.0 0.0
8
1.0 0.0 0.0 1.0 1.0 0.0 1.0 0.0
8
0.0 1.0 1.0 0.0 0.0 1.0 0.0 1.0
8
0.0 1.0 0.0 1.0 1.0 0.0 0.0 1.0
8
0.0 1.0 0.0 1.0 1.0 0.0 1.0 0.0
8
0.488449 0.511551 0.448487 0.551513 0.159033 0.840967 0.121071 0.878929
8
0.403725 0.596275 0.827979 0.172021 0.0825562 0.917444 0.436517 0.563483
8
0.0 1.0 1.0 0.0 0.0 1.0 1.0 0.0
8
1.0 0.0 1.0 0.0 0.0 1.0 1.0 0.0
8
0.971482 0.0285184 0.841181 0.158819 0.98553 0.01447 0.985906 0.0140942
8
1.0 0.0 1.0 0.0 0.0 1.0 0.0 1.0
8
0.249066 0.750934 0.0834799 0.91652 0.381151 0.618849 0.4081 0.5919
8
0.0 1.0 0.0 1.0 1.0 0.0 0.0 1.0
8
1.0 0.0 0.0 1.0 1.0 0.0 0.0 1.0
8
0.218751 0.781249 0.262021 0.737979 0.0144605 0.985539 0.0828647 0.917135
8
0.0 1.0 0.0 1.0 1.0 0.0 1.0 0.0
8
1.0 0.0 1.0 0.0 0.0 1.0 0.0 1.0
4
0.622285 0.377715 0.566059 0.433941
8
0.00343643 0.996564 0.974159 0.0258412 0.0698765 0.930123 0.232989 0.767011
8
0.102406 0.897594 0.545098 0.454902 0.0343255 0.965674 0.407338 0.592662
8
0.0 1.0 0.0 1.0 0.0 1.0 1.0 0.0
8
0.0 1.0 1.0 0.0 1.0 0.0 0.0 1.0
8
0.0 1.0 0.0 1.0 0.0 1.0 1.0 0.0
8
0.0 1.0 1.0 0.0 0.0 1.0 1.0 0.0
8
1.0 0.0 0.0 1.0 1.0 0.0 1.0 0.0
8
0.0 1.0 0.0 1.0 1.0 0.0 1.0 0.0
8
0.0 1.0 1.0 0.0 1.0 0.0 0.0 1.0
8
1.0 0.0 0.0 1.0 0.0 1.0 0.0 1.0
8
0.482484 0.517516 0.255901 0.744099 0.737194 0.262806 0.0123218 0.987678
8
0.0 1.0 0.0 1.0 1.0 0.0 0.0 1.0
8
1.0 0.0 0.0 1.0 1.0 0.0 0.0 1.0
8
0.996877 0.00312268 0.927047 0.0729534 0.798008 0.201992 0.620145 0.379855
8
0.0438589 0.956141 0.343195 0.656805 0.203989 0.796011 0.372599 0.627401
8
1.0 0.0 0.0 1.0 1.0 0.0 1.0 0.0
8
0.237029 0.762971 0.00446009 0.99554 0.730118 0.269882 0.249351 0.750649
8
1.0 0.0 1.0 0.0 0.0 1.0 1.0 0.0
8
1.0 0.0 1.0 0.0 0.0 1.0 1.0 0.0
8
0.0 1.0 1.0 0.0 1.0 0.0 1.0 0.0
4
0.0 1.0 1.0 0.0
8
1.0 0.0 0.0 1.0 1.0 0.0 1.0 0.0
8
0.0 1.0 0.0 1.0 1.0 0.0 1.0 0.0
8
0.0 1.0 1.0 0.0 1.0 0.0 1.0 0.0
8
1.0 0.0 1.0 0.0 1.0 0.0 0.0 1.0
8
1.0 0.0 1.0 0.0 1.0 0.0 0.0 1.0
8
0.0 1.0 1.0 0.0 0.0 1.0 1.0 0.0
8
0.0 1.0 1.0 0.0 0.0 1.0 0.0 1.0
8
1.0 0.0 0.0 1.0 0.0 1.0 1.0 0.0
8
0.925348 0.0746521 0.537602 0.462398 0.449481 0.550519 0.819993 0.180007
8
1.0 0.0 0.0 1.0 0.0 1.0 0.0 1.0
8
0.0 1.0 1.0 0.0 1.0 0.0 1.0 0.0
8
1.0 0.0 0.0 1.0 1.0 0.0 1.0 0.0
8
0.0845026 0.915497 0.751942 0.248058 0.933401 0.0665993 0.858506 0.141494
8
0.382918 0.617082 0.315054 0.684946 0.25567 0.74433 0.0681208 0.931879
8
0.0 1.0 1.0 0.0 0.0 1.0 1.0 0.0
8
0.414232 0.585768 0.0852461 0.914754 0.543773 0.456227 0.779277 0.220723
8
0.0 1.0 0.0 1.0 0.0 1.0 1.0 0.0
8
0.0 1.0 1.0 0.0 1.0 0.0 1.0 0.0
8
1.0 0.0 1.0 0.0 0.0 1.0 1.0 0.0
8
0.913824 0.0861764 0.0798095 0.92019 0.229878 0.770122 0.169493 0.830507
4
1.0 0.0 0.0 1.0
8
0.0 1.0 1.0 0.0 0.0 1.0 1.0 0.0
8
0.0 1.0 1.0 0.0 0.0 1.0 1.0 0.0
8
0.0 1.0 0.0 1.0 1.0 0.0 0.0 1.0
8
0.337321 0.662679 0.112265 0.887735 0.0540522 0.945948 0.100811 0.899189
8
0.0 1.0 0.0 1.0 0.0 1.0 1.0 0.0
8
0.313283 0.686717 0.142228 0.857772 0.0254427 0.974557 0.990231 0.00976879
8
1.0 0.0 1.0 0.0 0.0 1.0 1.0 0.0
8
0.620337 0.379663 0.582838 0.417162 0.946527 0.0534726 0.957408 0.0425922
8
0.0202316 0.979768 0.53568 0.46432 0.329532 0.670468 0.160683 0.839317
8
0.0 1.0 0.0 1.0 1.0 0.0 1.0 0.0
8
1.0 0.0 1.0 0.0 1.0 0.0 0.0 1.0
8
1.0 0.0 0.0 1.0 0.0 1.0 1.0 0.0
8
0.635164 0.364836 0.480302 0.519698 0.92351 0.07649 0.756866 0.243134
8
0.0 1.0 0.0 1.0 0.0 1.0 1.0 0.0
8
1.0 0.0 0.0 1.0 1.0 0.0 0.0 1.0
8
0.207106 0.792894 0.571922 0.428078 0.104253 0.895747 0.597973 0.402027
8
1.0 0.0 0.0 1.0 1.0 0.0 0.0 1.0
8
0.0 1.0 0.0 1.0 1.0 0.0 0.0 1.0
8
0.0 1.0 1.0 0.0 1.0 0.0 1.0 0.0
8
1.0 0.0 0.0 1.0 1.0 0.0 0.0 1.0
4
0.792082 0.207918 0.888948 0.111052
8
0.697152 0.302848 0.720253 0.279747 0.997395 0.0026051 0.269074 0.730926
8
0.595368 0.404632 0.60866 0.39134 0.37029 0.62971 0.64312 0.35688
8
0.0 1.0 1.0 0.0 1.0 0.0 0.0 1.0
8
1.0 0.0 1.0 0.0 0.0 1.0 1.0 0.0
8
1.0 0.0 1.0 0.0 1.0 0.0 0.0 1.0
8
0.739282 0.260718 0.842485 0.157515 0.739339 0.260661 0.628229 0.371771
8
1.0 0.0 1.0 0.0 1.0 0.0 0.0 1.0
8
1.0 0.0 0.0 1.0 0.0 1.0 0.0 1.0
8
0.984286 0.0157137 0.982043 0.0179569 0.689284 0.310716 0.33423 0.66577
8
1.0 0.0 0.0 1.0 0.0 1.0 0.0 1.0
8
0.0 1.0 1.0 0.0 0.0 1.0 1.0 0.0
8
0.40455 0.59545 0.432653 0.567347 0.597875 0.402125 0.143888 0.856112
8
0.0 1.0 1.0 0.0 0.0 1.0 0.0 1.0
8
0.0 1.0 1.0 0.0 1.0 0.0 0.0 1.0
8
0.428007 0.571993 0.109918 0.890082 0.937056 0.0629442 0.117291 0.882709
8
1.0 0.0 0.0 1.0 0.0 1.0 0.0 1.0
8
0.592287 0.407713 0.459298 0.540702 0.812877 0.187123 0.0495795 0.950421
8
0.0 1.0 1.0 0.0 1.0 0.0 1.0 0.0
8
0.0 1.0 1.0 0.0 0.0 1.0 0.0 1.0
8
0.0 1.0 1.0 0.0 0.0 1.0 0.0 1.0
4
1.0 0.0 0.0 1.0
8
0.236033 0.763967 0.609806 0.390194 0.317623 0.682377 0.303526 0.696474
8
0.0 1.0 1.0 0.0 0.0 1.0 1.0 0.0
8
1.0 0.0 0.0 1.0 0.0 1.0 1.0 0.0
8
1.0 0.0 0.0 1.0 0.0 1.0 0.0 1.0
8
1.0 0.0 0.0 1.0 0.0 1.0 0.0 1.0
8
0.0 1.0 1.0 0.0 1.0 0.0 0.0 1.0
8
1.0 0.0 0.0 1.0 0.0 1.0 0.0 1.0
8
1.0 0.0 1.0 0.0 1.0 0.0 0.0 1.0
8
0.300631 0.699369 0.196775 0.803225 0.145528 0.854472 0.0883307 0.911669
8
0.0228738 0.977126 0.522235 0.477765 0.836042 0.163958 0.0786157 0.921384
8
1.0 0.0 1.0 0.0 0.0 1.0 1.0 0.0
8
0.0 1.0 1.0 0.0 0.0 1.0 0.0 1.0
8
0.876538 0.123462 0.262606 0.737394 0.728197 0.271803 0.14192 0.85808
8
0.0 1.0 1.0 0.0 1.0 0.0 0.0 1.0
8
1.0 0.0 0.0 1.0 0.0 1.0 1.0 0.0
8
0.0 1.0 1.0 0.0 0.0 1.0 1.0 0.0
8
1.0 0.0 0.0 1.0 1.0 0.0 0.0 1.0
8
1.0 0.0 0.0 1.0 1.0 0.0 1.0 0.0
8
0.0 1.0 0.0 1.0 1.0 0.0 1.0 0.0
8
0.0 1.0 1.0 0.0 1.0 0.0 1.0 0.0
4
0.54647 0.45353 0.166035 0.833965
8
0.0 1.0 1.0 0.0 1.0 0.0 0.0 1.0
8
0.0 1.0 1.0 0.0 1.0 0.0 1.0 0.0
8
0.0 1.0 0.0 1.0 0.0 1.0 1.0 0.0
8
0.566269 0.433731 0.886181 0.113819 0.405277 0.594723 0.852095 0.147905
8
1.0 0.0 1.0 0.0 0.0 1.0 1.0 0.0
8
0.643314 0.356686 0.384966 0.615034 0.416928 0.583072 0.809349 0.190651
8
0.158049 0.841951 0.77375 0.22625 0.61103 0.38897 0.116693 0.883307
8
0.0 1.0 1.0 0.0 1.0 0.0 0.0 1.0
8
1.0 0.0 0.0 1.0 1.0 0.0 1.0 0.0
8
1.0 0.0 0.0 1.0 0.0 1.0 1.0 0.0
8
1.0 0.0 0.0 1.0 1.0 0.0 1.0 0.0
8
1.0 0.0 0.0 1.0 1.0 0.0 0.0 1.0
8
0.0 1.0 1.0 0.0 0.0 1.0 1.0 0.0
8
0.0 1.0 1.0 0.0 1.0 0.0 1.0 0.0
8
0.0 1.0 0.0 1.0 1.0 0.0 1.0 0.0
8
0.795488 0.204512 0.191673 0.808327 0.0669994 0.933001 0.212206 0.787794
8
1.0 0.0 0.0 1.0 1.0 0.0 0.0 1.0
8
1.0 0.0 1.0 0.0 1.0 0.0 0.0 1.0
8
0.0 1.0 1.0 0.0 0.0 1.0 1.0 0.0
8
0.897255 0.102745 0.100962 0.899038 0.690814 0.309186 0.503856 0.496144
4
0.395862 0.604138 0.631558 0.368442
8
0.0 1.0 1.0 0.0 0.0 1.0 0.0 1.0
8
1.0 0.0 1.0 0.0 0.0 1.0 0.0 1.0
8
0.450894 0.549106 0.577295 0.422705 0.471644 0.528356 0.339629 0.660371
8
1.0 0.0 1.0 0.0 0.0 1.0 1.0 0.0
8
0.0 1.0 0.0 1.0 1.0 0.0 1.0 0.0
8
1.0 0.0 1.0 0.0 0.0 1.0 0.0 1.0
8
1.0 0.0 1.0 0.0 0.0 1.0 1.0 0.0
8
1.0 0.0 0.0 1.0 1.0 0.0 0.0 1.0
8
0.11659 0.88341 0.119473 0.880527 0.24896 0.75104 0.456219 0.543781
8
0.0 1.0 0.0 1.0 1.0 0.0 0.0 1.0
8
0.0 1.0 0.0 1.0 1.0 0.0 0.0 1.0
8
0.0 1.0 1.0 0.0 0.0 1.0 0.0 1.0
8
1.0 0.0 0.0 1.0 1.0 0.0 1.0 0.0
8
1.0 0.0 1.0 0.0 0.0 1.0 1.0 0.0
8
0.0778434 0.922157 0.97231 0.0276902 0.24065 0.75935 0.534062 0.465938
8
1.0 0.0 1.0 0.0 0.0 1.0 1.0 0.0
8
0.0 1.0 1.0 0.0 0.0 1.0 1.0 0.0
8
0.429926 0.570074 0.584468 0.415532 0.631929 0.368071 0.534704 0.465296
8
0.0 1.0 1.0 0.0 0.0 1.0 0.0 1.0
8
1.0 0.0 1.0 0.0 1.0 0.0 0.0 1.0